p cnf 961 2512
c ind 896 905 906 918 920 921 928 929 932 937 0
c ind 938 945 946 952 925 954 857 953 917 931 0
c ind 958 959 861 943 955 856 858 860 875 888 0
c ind 892 941 859 867 868 871 881 889 898 902 0
c ind 907 922 934 939 855 853 870 897 956 957 0
c ind 895 903 904 936 940 876 935 948 949 950 0
c ind 951 877 908 915 944 893 916 899 919 900 0
c ind 947 911 882 894 884 924 923 926 862 869 0
c ind 879 872 901 942 866 885 864 887 914 883 0
c ind 886 927 890 913 930 878 909 863 933 880 0
c ind 865 912 874 910 873 891 854 1 0
c ret 581 713 714 715 716 717 718 719 582 720 0
c ret 721 722 723 724 725 726 727 625 728 626 0
c ret 729 730 583 731 732 733 627 734 735 736 0
c ret 737 584 738 739 740 741 742 743 744 745 0
c ret 628 746 629 747 748 749 585 750 751 752 0
c ret 753 754 755 756 757 758 759 586 587 630 0
c ret 588 760 761 762 763 764 765 766 767 631 0
c ret 768 769 770 771 772 589 632 773 774 775 0
c ret 633 776 777 778 590 779 780 781 782 783 0
c ret 573 591 784 785 786 787 592 788 789 790 0
c ret 791 634 635 792 793 593 636 794 795 796 0
c ret 797 798 799 800 594 801 802 803 595 804 0
c ret 805 806 807 808 637 809 810 811 812 813 0
c ret 814 815 816 596 817 818 819 820 638 821 0
c ret 822 823 824 825 826 827 828 829 639 597 0
c ret 830 831 832 833 834 835 836 837 598 838 0
c ret 839 640 840 641 841 842 843 844 845 846 0
c ret 847 574 599 848 849 850 851 852 600 642 0
c ret 643 644 645 601 646 647 648 649 602 603 0
c ret 650 651 604 652 653 654 605 655 656 575 0
c ret 606 657 658 659 660 661 662 663 664 607 0
c ret 665 608 609 610 666 611 576 667 668 612 0
c ret 613 669 614 670 615 616 671 672 673 617 0
c ret 577 618 674 675 676 677 678 679 680 681 0
c ret 682 578 683 684 685 686 687 688 689 690 0
c ret 691 692 693 694 579 619 695 620 696 697 0
c ret 698 621 622 699 700 701 702 580 703 704 0
c ret 705 706 707 623 708 624 709 710 711 712 0
2 -61 -200 0
2 -3 -188 -200 0
-2 200 0
-2 61 188 0
-2 3 61 0
3 -4 -59 60 734 0
-3 -734 0
-3 -60 0
-3 59 0
-3 4 0
4 -5 -7 0
4 -7 -735 0
-4 7 0
-4 5 735 0
5 -6 585 587 0
-5 6 0
-5 -587 0
-5 -585 0
6 589 604 0
-6 -589 0
-6 -604 0
7 8 29 -38 0
-7 38 0
-7 -29 0
-7 -8 0
8 9 10 0
8 10 -585 0
8 10 -587 0
-8 -10 0
-8 -9 585 587 0
9 589 608 0
-9 -589 0
-9 -608 0
10 -24 -585 0
10 11 585 0
-10 -11 585 0
-10 24 -585 0
11 -22 -587 0
11 12 587 0
-11 -12 587 0
-11 22 -587 0
12 -15 -589 0
12 13 589 0
-12 -13 589 0
-12 15 -589 0
13 -607 -628 0
13 -14 -628 0
-13 628 0
-13 14 607 0
14 -600 -601 -629 0
-14 600 0
-14 601 0
-14 629 0
13 15 16 0
15 -16 657 0
-13 -15 16 0
-15 -16 -657 0
16 17 608 0
-16 -608 0
-16 -17 0
17 18 -658 0
-17 658 0
-17 -18 0
18 19 661 0
18 19 662 0
-18 -19 0
-18 -661 -662 0
19 20 -21 608 658 0
-19 21 0
-19 -20 0
-19 -608 0
-19 -658 0
20 609 618 -665 0
-20 665 0
-20 -618 0
-20 -609 0
21 -659 661 662 0
-21 659 0
-21 -662 0
-21 -661 0
22 -23 -682 0
12 22 23 0
-12 -22 23 0
-22 -23 682 0
-9 17 23 0
9 -23 0
-17 -23 0
11 24 25 0
24 -25 708 0
-11 -24 25 0
-24 -25 -708 0
25 -26 -28 0
25 -26 -27 658 0
-25 26 0
-25 28 -658 0
-25 27 28 0
-9 26 587 0
-26 -587 0
9 -26 0
27 587 589 0
-27 -587 0
-27 -589 0
-18 28 658 0
-18 28 608 0
18 -28 0
-28 -608 -658 0
29 -30 -31 0
29 -31 32 -599 0
-29 31 0
-29 30 -32 0
-29 30 599 0
30 -634 635 -636 0
-30 634 0
-30 -635 0
-30 636 0
31 585 587 589 0
-31 -585 0
-31 -589 0
-31 -587 0
32 -585 -713 0
32 33 585 0
-32 -585 713 0
-32 -33 585 0
33 -587 690 0
33 -34 587 0
-33 -587 -690 0
-33 34 587 0
34 -589 666 0
34 -35 589 0
-34 -589 -666 0
-34 35 589 0
35 36 37 0
35 36 -621 -622 0
-35 -36 0
-35 -37 621 0
-35 -37 622 0
36 -597 -619 0
36 -597 -620 0
-36 597 0
-36 619 620 0
37 598 -619 -620 0
-37 620 0
-37 619 0
-37 -598 0
38 -39 55 0
38 53 55 0
-38 -55 0
-38 39 -53 0
39 -40 -47 0
39 -47 716 0
-39 47 0
-39 40 -716 0
40 -585 716 0
40 -41 585 0
-40 -585 -716 0
-40 41 585 0
41 -587 693 0
41 -42 587 0
-41 -587 -693 0
-41 42 587 0
42 43 589 0
42 43 668 0
-42 -43 0
-42 -589 -668 0
43 44 589 0
-43 -589 0
-43 -44 0
44 -46 615 0
44 -46 -626 0
44 45 -46 0
-44 46 0
-44 -45 -615 626 0
45 645 647 648 -649 0
-45 649 0
-45 -648 0
-45 -645 0
-45 -647 0
46 647 648 0
46 626 645 0
46 645 648 0
46 626 647 0
-46 -645 -647 0
-46 -626 -648 0
47 -52 723 0
47 -48 585 723 0
-47 -723 0
-47 52 -585 0
-47 48 52 0
48 -49 587 0
48 -51 -587 0
-48 51 -587 0
-48 49 587 0
49 -50 589 0
-49 -589 0
-49 50 0
50 -626 645 0
50 626 644 0
-50 626 -644 0
-50 -626 -645 0
51 668 692 0
-51 -668 0
-51 -692 0
52 693 715 0
-52 -693 0
-52 -715 0
53 -54 724 0
53 716 724 0
-53 -724 0
-53 54 -716 0
-48 54 585 0
-52 54 -585 0
52 -54 -585 0
48 -54 585 0
55 57 725 0
55 56 58 725 0
-55 -725 0
-55 -56 -57 0
-55 -57 -58 0
56 625 626 0
56 613 -626 0
-56 -625 626 0
-56 -613 -626 0
-56 57 -716 0
57 716 727 0
-57 716 -727 0
56 -57 -716 0
-52 58 726 0
-58 -726 0
52 -58 0
-5 -7 59 0
-7 59 -728 0
7 -59 0
5 -59 728 0
60 -728 735 0
-60 728 0
-60 -735 0
61 -176 579 0
61 62 579 756 0
-61 -579 0
-61 176 -756 0
-61 -62 176 0
62 139 -757 0
62 63 107 139 0
-62 -139 0
-62 -63 757 0
-62 -107 757 0
63 -106 758 759 0
63 -64 758 -759 0
-63 -758 0
-63 64 -759 0
-63 106 759 0
64 -65 -588 670 674 0
64 -65 588 -670 674 0
-64 65 0
-64 588 670 0
-64 -674 0
-64 -588 -670 0
65 -66 74 -75 -97 0
-65 97 0
-65 66 0
-65 75 0
-65 -74 0
66 67 -72 -589 0
66 67 -68 -72 0
-66 72 0
-66 -67 0
-66 68 589 0
9 12 67 0
-9 -67 0
-12 -67 0
68 -69 -70 0
68 -69 71 0
-68 69 0
-68 70 -71 0
30 35 69 0
30 69 599 0
-30 -69 0
-35 -69 -599 0
-44 70 643 0
-70 -643 0
44 -70 0
-50 71 650 0
-71 -650 0
50 -71 0
72 73 -671 0
-6 72 73 0
-72 -73 0
6 -72 671 0
56 73 651 0
-73 -651 0
-56 -73 0
15 74 -589 0
74 -589 -604 654 0
-74 589 0
-15 -74 604 0
-15 -74 -654 0
-69 75 -76 88 -89 0
-75 89 0
69 -75 0
-75 76 0
-75 -88 0
76 -77 86 604 0
76 -77 -84 86 0
-76 77 0
-76 -86 0
-76 84 -604 0
77 -79 -81 -607 0
77 78 -79 -81 0
-77 81 0
-77 79 0
-77 -78 607 0
78 600 -608 0
-78 -600 0
-78 608 0
79 80 598 0
79 80 -597 0
79 80 599 0
-79 -80 0
-79 597 -598 -599 0
80 600 609 0
80 -600 601 0
-80 -600 -601 0
-80 600 -609 0
81 -82 83 -611 0
78 81 -82 83 0
-81 82 0
-81 -83 0
-78 -81 611 0
82 -590 -617 -637 638 0
-82 637 0
-82 -638 0
-82 590 0
-82 617 0
83 -604 639 0
83 -630 639 0
-83 -639 0
-83 604 630 0
84 85 -603 -623 0
84 85 602 -623 0
-84 623 0
-84 -85 0
-84 -602 603 0
85 605 -606 0
85 605 624 0
-85 -605 0
-85 606 -624 0
86 -87 -592 0
86 -592 594 -596 0
-86 592 0
-86 87 -594 0
-86 87 596 0
87 -591 593 -594 595 0
-87 594 0
-87 -595 0
-87 591 0
-87 -593 0
-13 88 -608 0
-88 608 0
13 -88 0
-56 89 -91 -94 0
89 90 -91 -94 0
-89 94 0
-89 91 0
56 -89 -90 0
90 612 -627 0
-90 -612 0
-90 627 0
91 92 93 604 0
91 92 93 -630 0
-91 -93 0
-91 -92 0
-91 -604 630 0
92 609 618 0
-92 -609 0
-92 -618 0
93 615 -616 0
-93 -615 0
-93 616 0
94 95 96 0
94 95 600 0
94 95 607 0
-94 -95 0
-94 -96 -600 -607 0
95 612 -617 0
95 612 -613 -614 0
-95 -612 0
-95 613 617 0
-95 614 617 0
96 -608 -609 610 0
-96 608 0
-96 609 0
-96 -610 0
97 -98 -102 615 0
97 -98 101 -102 0
-97 102 0
-97 98 0
-97 -101 -615 0
-68 98 -651 0
-68 98 -99 617 0
68 -98 0
-98 -617 651 0
-98 99 651 0
99 -100 652 0
-99 -652 0
-99 100 0
100 646 647 0
100 -626 647 0
100 614 626 -647 0
-100 -614 -647 0
-100 -626 -647 0
-100 626 -646 647 0
-50 -70 101 0
-70 -100 101 0
70 -101 0
50 100 -101 0
71 88 102 -103 0
88 102 -103 615 0
-102 103 0
-88 -102 0
-71 -102 -615 0
56 103 104 -105 -651 0
-103 105 0
-103 -104 0
-103 651 0
-56 -103 0
104 -604 654 0
104 -654 671 0
104 -589 671 0
-104 604 -671 0
-104 -654 -671 0
-104 589 604 654 0
105 -642 -669 670 0
-105 642 0
-105 669 0
-105 -670 0
-75 106 642 0
-106 -642 0
75 -106 0
107 -108 699 -758 0
-107 108 0
-107 758 0
-107 -699 0
-65 108 -109 119 -132 0
-108 132 0
65 -108 0
-108 109 0
-108 -119 0
109 110 111 112 -116 0
-109 116 0
-109 -112 0
-109 -110 0
-109 -111 0
-11 110 -587 0
9 -11 110 0
11 -110 0
-9 -110 587 0
-27 -30 111 0
-27 -33 111 -599 0
27 -111 0
30 33 -111 0
30 -111 599 0
112 -113 587 0
-112 -587 0
-112 113 0
113 114 -115 0
-113 -114 0
-113 115 0
-49 114 668 675 0
43 -49 114 675 0
49 -114 0
-114 -675 0
-43 -114 -668 0
-49 115 676 0
115 668 676 0
-115 -676 0
49 -115 -668 0
116 -117 -696 0
116 -117 -118 0
-116 117 0
-116 118 696 0
117 -677 0
-56 117 -668 0
-56 117 678 0
56 -117 677 0
-117 668 677 -678 0
-6 118 587 0
-118 -587 0
6 -118 0
-22 119 -120 0
119 126 -587 0
-22 119 -587 0
119 -120 126 0
22 -119 -126 0
-119 120 587 0
120 121 125 0
-12 120 121 -124 0
-120 -121 0
12 -120 -125 0
-120 124 -125 0
121 589 683 689 0
121 122 -589 683 -689 0
-121 -589 689 0
-121 -122 -689 0
-121 -683 0
-121 589 -689 0
122 -123 -589 -686 0
122 -123 589 -687 0
-122 123 0
-122 -589 686 0
-122 589 687 0
123 636 -684 0
123 -684 -685 0
-123 684 0
-123 -636 685 0
-34 -114 124 688 0
-34 124 677 688 0
34 -124 0
-124 -688 0
114 -124 -677 0
-122 125 -589 -683 0
-125 589 0
-125 683 0
122 -125 0
-117 126 -127 -129 -131 0
-126 131 0
117 -126 0
-126 129 0
-126 127 0
113 127 -677 0
113 127 -128 0
-113 -127 0
-127 128 677 0
-56 128 -668 0
128 668 678 0
-128 668 -678 0
56 -128 -668 0
129 130 -589 0
-69 129 130 0
-129 -130 0
69 -129 589 0
6 130 679 0
-130 -679 0
-6 -130 0
30 130 131 -587 589 0
-130 -131 0
-30 -131 0
-131 587 0
-131 -589 0
-66 111 -127 132 -133 0
-132 133 0
66 -132 0
127 -132 0
-111 -132 0
-71 -129 133 -134 0
114 -129 133 -134 0
-133 134 0
129 -133 0
71 -114 -133 0
128 130 134 -135 -137 0
-128 -134 0
-134 137 0
-134 135 0
-130 -134 0
135 -136 -696 0
135 -136 587 679 0
-135 136 0
-135 -679 696 0
-135 -587 696 0
136 588 -670 0
136 -588 670 0
-136 -588 -670 0
-136 588 670 0
-56 137 -138 0
137 -138 -677 0
-137 138 0
56 -137 677 0
138 -586 -674 -694 695 0
-138 694 0
-138 -695 0
-138 586 0
-138 674 0
139 -140 -165 722 -757 0
-139 -722 0
-139 165 0
-139 140 0
-139 757 0
140 -150 -161 0
140 141 -161 585 0
-140 161 0
-140 -141 150 0
-140 150 -585 0
141 142 149 0
11 141 142 -146 0
-141 -142 0
-11 -141 -149 0
-141 146 -149 0
-27 142 709 712 0
27 142 143 709 -712 0
-27 -142 -712 0
27 -142 -143 0
-142 -709 0
27 -142 712 0
-123 143 -144 0
123 -143 0
-143 144 0
144 -587 -710 0
144 -145 587 0
-144 145 587 0
-144 -587 710 0
145 -589 -686 0
145 589 -687 0
-145 589 687 0
-145 -589 686 0
-33 146 -147 711 0
-33 146 702 711 0
33 -146 0
-146 -711 0
-146 147 -702 0
147 148 693 700 0
-41 147 148 700 0
-147 -148 0
-147 -700 0
41 -147 -693 0
48 51 148 0
-51 -148 0
-48 -148 0
27 -143 149 -709 0
-149 709 0
-27 -149 0
143 -149 0
-24 150 -151 -157 -158 0
-150 158 0
24 -150 0
-150 157 0
-150 151 0
151 -152 156 0
-151 152 0
-151 -156 0
152 153 155 0
-147 152 153 0
-152 -153 0
147 -152 -155 0
153 154 702 0
-153 -702 0
-153 -154 0
-56 154 -693 0
154 693 704 0
-154 693 -704 0
56 -154 -693 0
-48 155 701 0
155 693 701 0
-155 -701 0
48 -155 -693 0
118 156 705 0
-156 -705 0
-118 -156 0
111 156 157 0
-111 -157 0
-156 -157 0
-27 30 158 -159 -585 0
-158 159 0
-158 585 0
27 -158 0
-30 -158 0
159 -702 0
-56 -154 159 0
-154 159 -160 0
154 -159 702 0
56 -159 160 702 0
-51 160 703 0
-160 -703 0
51 -160 0
8 29 -108 161 -162 0
-161 162 0
-29 -161 0
108 -161 0
-8 -161 0
162 -163 -719 0
-5 162 -163 0
-162 163 0
5 -162 719 0
-147 -159 163 0
-159 163 164 0
159 -163 0
147 -163 -164 0
-155 164 585 0
-164 -585 0
155 -164 0
8 -109 110 165 -166 0
109 -165 0
-8 -165 0
-110 -165 0
-165 166 0
29 -151 166 -167 -175 0
-166 175 0
151 -166 0
-166 167 0
-29 -166 0
147 -163 167 -169 0
-163 167 -168 -169 0
-167 169 0
163 -167 0
-147 -167 168 0
-115 168 587 0
-168 -587 0
115 -168 0
169 -170 -173 -702 0
-128 169 -170 -173 0
-169 173 0
-169 170 0
128 -169 702 0
154 170 -172 -719 0
154 170 -171 -172 0
-170 172 0
-154 -170 0
-170 171 719 0
171 585 705 0
-171 -585 0
-171 -705 0
172 -584 -699 -717 718 0
-172 717 0
-172 -718 0
-172 584 0
-172 699 0
173 174 -585 0
156 173 174 0
-173 -174 0
-156 -173 585 0
56 160 174 702 0
-174 -702 0
-160 -174 0
-56 -174 0
-152 -157 175 0
152 -175 0
157 -175 0
-3 176 -177 738 -756 0
-176 -738 0
-176 177 0
3 -176 0
-176 756 0
-59 177 178 -179 0
-59 177 -179 -186 0
59 -177 0
-177 179 0
-177 -178 186 0
-123 -144 178 585 0
-123 178 -585 -731 0
123 -178 0
-178 -585 731 0
144 -178 585 0
-38 -140 -165 179 -180 0
-179 180 0
140 -179 0
38 -179 0
165 -179 0
39 180 181 -182 0
-164 180 181 -182 0
-180 182 0
-180 -181 0
-39 164 -180 0
178 181 -583 0
-181 583 0
-178 -181 0
57 182 -183 -725 0
57 -154 182 -183 0
-182 183 0
-57 -182 0
154 -182 725 0
183 184 -185 -582 734 0
183 184 -185 582 -734 0
-183 185 0
-183 582 734 0
-183 -184 0
-183 -582 -734 0
-27 184 585 0
-184 -585 0
27 -184 0
185 -722 -728 -733 0
-185 722 0
-185 728 0
-185 733 0
186 187 -583 0
10 186 -583 0
-186 583 0
-10 -186 -187 0
32 -39 187 732 0
32 187 725 732 0
-32 -187 0
-187 -732 0
39 -187 -725 0
-4 -177 188 189 -193 0
-188 193 0
4 -188 0
177 -188 0
-188 -189 0
-178 189 581 0
-10 -178 189 -190 0
178 -189 0
-189 190 -581 0
10 -189 -581 0
32 190 -191 749 0
32 190 743 749 0
-32 -190 0
-190 -749 0
-190 191 -743 0
191 192 739 741 0
-40 191 192 739 0
-191 -739 0
-191 -192 0
40 -191 -741 0
54 192 -716 0
54 192 -740 0
-54 -192 0
-192 716 740 0
191 193 -194 199 0
-53 -191 193 -194 0
-193 194 0
53 -191 -193 0
191 -193 -199 0
29 194 -195 581 0
29 -178 194 -195 0
-194 195 0
-29 -194 0
178 -194 -581 0
31 195 -196 -197 -198 0
-31 -195 0
-195 198 0
-195 197 0
-195 196 0
196 -579 741 -745 0
56 196 -579 -741 0
-196 579 0
-56 -196 -741 0
-196 741 745 0
197 -750 751 -752 755 0
-197 752 0
-197 -755 0
-197 750 0
-197 -751 0
198 -580 -738 -743 -746 0
-198 746 0
-198 580 0
-198 743 0
-198 738 0
-54 199 742 0
199 741 742 0
-199 -742 0
54 -199 -741 0
200 201 266 -435 -570 0
-200 -201 0
-200 570 0
-200 435 0
-200 -266 0
201 209 -574 0
201 -209 -213 0
201 -202 209 0
201 -209 574 0
-201 -209 213 -574 0
-201 202 209 574 0
202 -203 -828 0
202 203 828 0
-202 -203 828 0
-202 203 -828 0
203 -204 576 0
-203 -576 0
-203 204 0
204 205 578 0
-204 -578 0
-204 -205 0
31 205 207 0
205 -207 -208 0
205 -206 -207 0
-31 -205 207 0
-205 206 -207 208 0
27 206 -758 0
-206 758 0
-27 -206 0
207 579 756 757 0
-207 -579 0
-207 -757 0
-207 -756 0
208 -589 -759 0
-208 589 0
-208 759 0
203 209 -210 -211 0
-209 211 0
-209 210 0
-203 -209 0
210 -685 -764 0
210 -764 767 0
-210 764 0
-210 685 -767 0
211 -576 -826 0
211 -212 576 0
-211 212 576 0
-211 -576 826 0
212 578 -780 0
212 -578 -805 0
-212 -578 805 0
-212 578 780 0
213 214 -259 820 0
213 214 -235 -259 0
-213 259 0
-213 -214 0
-213 235 -820 0
214 215 216 0
-214 -215 0
-214 -216 0
215 768 769 782 0
-215 -768 0
-215 -782 0
-215 -769 0
216 -217 576 0
216 -229 -576 0
-216 229 -576 0
-216 217 576 0
217 -218 -578 0
217 578 773 0
-217 578 -773 0
-217 218 -578 0
218 219 773 0
218 -219 776 0
-218 -219 -776 0
-218 219 -773 0
219 -220 -225 0
219 -225 777 0
-219 225 0
-219 220 -777 0
207 220 -221 0
-207 220 -223 0
-207 220 -222 0
207 -220 221 0
-207 -220 222 223 0
27 -28 221 0
-27 221 585 658 0
-28 221 -585 0
27 28 -221 0
28 -221 -585 0
-27 -221 585 -658 0
208 222 658 758 0
-28 -208 222 758 0
-222 -758 0
208 -222 -658 0
28 -208 -222 0
223 -224 -758 0
-223 758 0
-223 224 0
-27 224 658 0
27 -28 224 0
-27 -224 -658 0
27 28 -224 0
225 226 -227 0
225 775 778 0
225 -227 775 0
225 226 778 0
-225 -226 -775 0
-225 227 -778 0
205 226 -660 0
-226 660 0
-205 -226 0
-184 227 608 0
227 -228 608 0
-227 -608 0
184 -227 228 0
-27 -207 208 228 0
-207 208 228 758 0
207 -228 0
-208 -228 0
27 -228 -758 0
-217 229 230 0
229 -230 803 0
-229 -230 -803 0
217 -229 230 0
230 -231 -232 0
230 -232 777 0
-230 232 0
-230 231 -777 0
-220 231 578 0
-231 -578 0
220 -231 0
232 775 778 0
232 -233 -234 0
232 -234 775 0
232 -233 778 0
-232 233 -775 0
-232 234 -778 0
233 578 660 0
-205 233 578 0
-233 -578 0
205 -233 -660 0
234 -578 778 0
-227 234 578 0
-234 -578 -778 0
227 -234 578 0
235 245 811 818 0
235 -236 245 818 0
-235 -245 0
-235 -818 0
-235 236 -811 0
236 -240 576 0
236 -576 811 0
236 -237 576 0
-236 -576 -811 0
-236 237 240 576 0
-40 237 238 578 0
-207 237 238 578 0
-237 -578 0
-237 -238 0
40 207 -237 0
41 -207 238 -758 0
-207 238 -239 758 0
207 -238 0
-238 239 758 0
-41 -238 -758 0
-208 239 -668 0
44 208 239 0
-44 208 -239 0
-208 -239 668 0
240 241 -578 0
-240 578 0
-240 -241 0
241 -579 -787 0
241 -244 579 0
241 -242 579 0
-241 -579 787 0
-241 242 244 579 0
242 -716 756 -757 0
242 243 756 757 0
-242 -756 0
-242 -243 757 0
-242 716 -757 0
243 693 -758 0
243 668 758 -759 0
-243 -693 -758 0
-243 -668 758 0
-243 758 759 0
244 -741 -756 0
-244 741 0
-244 756 0
245 246 258 0
-245 -246 0
-245 -258 0
246 -247 576 0
-246 -576 0
-246 247 0
247 251 -578 0
247 -248 251 0
-247 -251 0
-247 248 578 0
-54 248 249 578 0
-207 248 249 578 0
-248 -578 0
-248 -249 0
54 207 -248 0
48 -207 249 250 0
-207 249 250 758 0
207 -249 0
-249 -250 0
-48 -249 -758 0
-50 208 250 758 0
-250 -758 0
50 -250 0
-208 -250 0
248 251 -252 0
-248 -251 0
-251 252 0
252 253 -741 0
252 253 -786 0
252 253 579 0
-252 -253 0
-252 -579 741 786 0
253 -255 579 756 0
253 -254 579 -756 0
-253 -579 0
-253 254 -756 0
-253 255 756 0
254 716 740 0
-254 -716 0
-254 -740 0
-52 255 -757 0
255 -257 757 0
255 -256 757 0
52 -255 -757 0
-255 256 257 757 0
-100 256 758 759 0
100 -256 0
-256 -759 0
-256 -758 0
-51 257 -758 0
-257 758 0
51 -257 0
241 258 810 0
-258 -810 0
-241 -258 0
259 260 827 0
-259 -827 0
-259 -260 0
260 -576 -808 0
260 -261 576 0
-260 261 576 0
-260 -576 808 0
261 262 -784 0
261 262 578 0
-261 -262 0
-261 -578 784 0
262 263 578 0
-262 -578 0
-262 -263 0
-207 263 -264 0
-32 207 263 0
-207 -263 264 0
32 207 -263 0
33 264 -758 0
264 -265 758 0
-33 -264 -758 0
-264 265 758 0
-208 265 -666 0
35 208 265 0
-35 208 -265 0
-208 -265 666 0
216 266 267 -276 -290 0
-216 266 -267 -276 -290 0
-266 290 0
-216 -266 267 0
-266 276 0
216 -266 -267 0
267 -270 -854 0
267 268 854 0
-267 -268 854 0
-267 270 -854 0
268 -872 -893 0
268 -269 -893 0
-268 893 0
-268 269 872 0
269 -865 -866 -894 0
-269 865 0
-269 866 0
-269 894 0
268 270 271 0
270 -271 922 0
-268 -270 271 0
-270 -271 -922 0
271 873 923 0
271 -272 873 0
-271 -873 0
-271 272 -923 0
272 273 926 0
272 273 927 0
-272 -273 0
-272 -926 -927 0
273 274 -275 873 923 0
-273 275 0
-273 -274 0
-273 -873 0
-273 -923 0
274 874 883 -930 0
-274 930 0
-274 -883 0
-274 -874 0
275 -924 926 927 0
-275 924 0
-275 -927 0
-275 -926 0
276 277 -278 -280 0
276 -277 278 -280 0
-276 280 0
-276 277 278 0
-276 -277 -278 0
277 -576 -777 0
231 277 -777 0
231 277 576 578 0
-277 -576 777 0
-231 -277 576 0
-277 -578 777 0
278 -279 -854 0
278 854 923 0
-278 854 -923 0
-278 279 -854 0
-272 279 923 0
-272 279 873 0
272 -279 0
-279 -873 -923 0
280 281 285 288 0
-260 280 -285 -288 0
-260 280 285 288 0
280 281 -285 -288 0
-280 285 -288 0
-280 -285 288 0
260 -280 -281 0
281 -854 -931 0
281 282 854 0
-281 -854 931 0
-281 -282 854 0
282 283 862 0
282 283 884 885 0
-282 -283 0
-282 -862 -885 0
-282 -862 -884 0
283 284 863 -884 -885 0
-283 -863 0
-283 -284 0
-283 885 0
-283 884 0
284 -886 -887 0
-284 886 0
-284 887 0
285 -286 941 0
285 933 941 0
-285 -941 0
-285 286 -933 0
286 -287 854 0
-286 -854 0
-286 287 0
287 -891 910 0
287 891 909 0
-287 891 -909 0
-287 -891 -910 0
288 289 838 0
288 837 838 0
-288 -838 0
-288 -289 -837 0
246 258 289 0
246 289 576 0
-246 -289 0
-258 -289 -576 0
290 291 293 298 -299 0
290 -291 -293 298 -299 0
-290 -298 0
-290 291 -293 0
-290 299 0
-290 -291 293 0
291 292 835 837 0
-236 291 292 835 0
-291 -835 0
-291 -292 0
236 -291 -837 0
-289 292 -836 0
-289 292 -811 0
289 -292 0
-292 811 836 0
-286 293 294 940 0
-286 293 933 940 0
286 -293 0
-293 -940 0
-293 -294 -933 0
294 295 854 0
-294 -854 0
-294 -295 0
295 -297 880 0
295 -297 -891 0
295 296 -297 0
-295 297 0
-295 -296 -880 891 0
296 910 912 913 -914 0
-296 914 0
-296 -913 0
-296 -910 0
-296 -912 0
297 912 913 0
297 891 910 0
297 910 913 0
297 891 912 0
-297 -910 -912 0
-297 -891 -913 0
-260 281 298 0
260 -298 0
-281 -298 0
-236 299 -300 -301 0
236 299 300 -301 0
-299 301 0
-236 -299 300 0
236 -299 -300 0
294 300 854 0
294 300 933 0
-294 -300 0
-300 -854 -933 0
286 -289 301 -302 -414 0
-286 289 301 -302 -414 0
-301 414 0
286 289 -301 0
-301 302 0
-286 -289 -301 0
302 -303 318 319 -320 0
302 -303 -318 -319 -320 0
-302 320 0
-302 -318 319 0
-302 303 0
-302 318 -319 0
303 -304 312 0
303 305 -306 0
303 305 312 0
303 -304 -306 0
-303 304 -305 0
-303 306 -312 0
304 854 873 0
-304 -854 0
-304 -873 0
305 -578 778 0
-227 305 576 578 0
305 -576 778 0
-305 -576 -778 0
227 -305 576 578 0
-305 -578 -778 0
306 -308 885 0
306 307 -308 887 0
-306 308 0
-306 -307 -885 0
-306 -885 -887 0
307 863 -897 0
-307 -863 0
-307 897 0
308 -309 -310 863 0
308 309 -310 311 0
-308 310 0
-308 309 -311 0
-308 -309 -863 0
309 -864 -898 0
-309 864 0
-309 898 0
310 854 886 0
-310 -854 0
-310 -886 0
311 -887 -897 0
-311 887 0
-311 897 0
205 312 -313 314 -315 0
-312 313 0
-312 -314 0
-205 -312 0
-312 315 0
-203 313 621 0
-313 -621 0
203 -313 0
314 -620 -622 0
314 598 -620 -632 0
-314 620 0
-314 -598 622 0
-314 622 632 0
315 316 317 621 0
315 -316 598 621 0
-315 -621 0
-315 316 -317 0
-315 -316 -598 0
316 -599 -633 0
-316 599 0
-316 633 0
317 -622 -632 0
-317 622 0
-317 632 0
318 854 -925 0
-318 -854 0
-318 925 0
319 -576 -775 0
-226 319 576 578 0
319 -578 -775 0
-319 -578 775 0
226 -319 576 578 0
-319 -576 775 0
320 -321 -338 -339 -344 0
-320 344 0
-320 321 0
-320 339 0
-320 338 0
321 322 323 -326 -327 0
321 -322 -323 -326 -327 0
-321 327 0
-321 -322 323 0
-321 326 0
-321 322 -323 0
322 854 -864 0
-322 -854 0
-322 864 0
323 -324 -325 0
-323 324 0
-323 325 0
324 576 578 0
-324 -576 0
-324 -578 0
205 325 -599 0
-325 599 0
-205 -325 0
-279 285 326 777 0
279 285 326 -777 0
-279 -293 326 777 0
279 -293 326 -777 0
-279 -326 -777 0
279 -326 777 0
-285 293 -326 0
293 327 -329 -335 0
327 -328 -329 -335 0
-327 335 0
-327 329 0
-293 -327 328 0
-287 328 915 0
-328 -915 0
287 -328 0
-211 329 -330 -331 0
211 329 330 -331 0
-329 331 0
-211 -329 330 0
211 -329 -330 0
330 -854 -949 0
330 854 -950 0
-330 854 950 0
-330 -854 949 0
331 332 334 -942 0
331 -332 -334 942 0
331 -332 -334 -947 0
-331 332 -334 0
-331 -332 -942 947 0
-331 332 942 0
-331 -332 334 0
332 -333 -933 0
332 933 943 0
-332 933 -943 0
-332 333 -933 0
333 890 891 0
333 878 -891 0
-333 -890 891 0
-333 -878 -891 0
-56 334 -837 0
334 837 841 0
-334 837 -841 0
56 -334 -837 0
335 -336 880 0
328 335 336 0
335 -854 880 0
-328 -335 -880 0
-335 -336 -880 0
-328 -335 336 854 0
-287 -295 336 908 0
-295 336 -337 908 0
-336 -908 0
295 -336 0
287 -336 337 0
337 911 912 0
337 -891 912 0
337 879 891 -912 0
-337 -879 -912 0
-337 -891 -912 0
-337 891 -911 912 0
-305 306 338 0
304 -312 338 0
304 306 338 0
-305 -312 338 0
-304 305 -338 0
-306 312 -338 0
313 339 340 -341 0
-310 339 340 -341 0
-339 341 0
-339 -340 0
310 -313 -339 0
203 340 854 -953 0
340 847 854 -953 0
-340 953 0
-340 -854 0
-203 -340 -847 0
203 341 -342 343 -854 0
-203 341 342 -343 854 0
203 341 342 -343 -854 0
-203 341 -342 343 854 0
-203 -341 -854 0
203 -341 854 0
-341 342 343 0
-341 -342 -343 0
-28 342 852 0
-342 -852 0
28 -342 0
343 -927 -959 0
343 927 -958 959 0
-343 958 959 0
-343 927 -959 0
-343 -927 959 0
-313 344 -345 413 0
310 344 -345 413 0
-344 345 0
-344 -413 0
-310 313 -344 0
345 346 -347 349 -350 0
-345 347 0
-345 -349 0
-345 -346 0
-345 350 0
-328 336 346 0
328 -346 0
-336 -346 0
347 348 901 0
347 348 -900 0
347 348 899 0
-347 -348 0
-347 -899 900 -901 0
-282 348 -864 0
-348 864 0
282 -348 0
333 349 916 0
-349 -916 0
-333 -349 0
350 -351 409 410 -411 0
350 -351 -409 -410 -411 0
-350 411 0
-350 -409 410 0
-350 351 0
-350 409 -410 0
351 -352 -388 -396 -405 0
-351 405 0
-351 352 0
-351 396 0
-351 388 0
352 -353 -364 -375 -381 0
-352 381 0
-352 353 0
-352 375 0
-352 364 0
353 -354 -355 -356 -359 0
-353 359 0
-353 354 0
-353 356 0
-353 355 0
354 685 851 0
354 -948 -957 0
354 685 -957 0
354 851 -948 0
-354 -685 948 0
-354 -851 957 0
355 764 944 0
355 -842 -947 0
355 764 -842 0
355 944 -947 0
-355 -764 947 0
-355 842 -944 0
356 357 358 853 -935 0
356 357 358 -853 935 0
-356 -357 0
-356 853 935 0
-356 -358 0
-356 -853 -935 0
357 845 -951 0
-357 -845 0
-357 951 0
358 767 -901 0
-358 -767 0
-358 901 0
359 -360 -361 -362 -363 0
-359 363 0
-359 360 0
-359 362 0
-359 361 0
360 -851 948 0
360 -685 957 0
360 -685 -851 0
360 948 957 0
-360 851 -957 0
-360 685 -948 0
361 617 845 0
361 -882 -951 0
361 617 -951 0
361 845 -882 0
-361 -617 882 0
-361 -845 951 0
362 -764 -948 0
362 901 947 0
362 947 -948 0
362 -764 901 0
-362 -901 948 0
-362 764 -947 0
363 767 839 0
363 -901 -942 0
363 767 -942 0
363 839 -901 0
-363 -767 901 0
-363 -839 942 0
364 -365 -370 -373 -374 0
-364 374 0
-364 365 0
-364 373 0
-364 370 0
365 366 -368 -855 903 0
365 366 -368 855 -903 0
-365 368 0
-365 855 903 0
-365 -366 0
-365 -855 -903 0
366 367 936 0
366 367 944 0
-366 -367 0
-366 -936 -944 0
367 854 869 0
-367 -854 0
-367 -869 0
368 369 863 0
368 369 -862 0
368 369 864 0
-368 -369 0
-368 862 -863 -864 0
369 865 -873 876 0
369 865 872 -873 0
-369 -865 0
-369 873 0
-369 -872 -876 0
370 371 -372 -765 -768 0
-370 372 0
-370 765 0
-370 768 0
-370 -371 0
371 874 883 0
-371 -874 0
-371 -883 0
372 -778 -782 849 -854 0
-372 854 0
-372 778 0
-372 782 0
-372 -849 0
373 -934 935 -939 -947 0
-373 947 0
-373 934 0
-373 939 0
-373 -935 0
374 -882 -902 903 -907 0
-374 907 0
-374 882 0
-374 902 0
-374 -903 0
375 376 377 -379 0
375 377 -379 -854 0
-375 379 0
-375 -377 0
-375 -376 854 0
376 -899 900 -901 0
-376 899 0
-376 -900 0
-376 901 0
377 -378 -873 -874 875 0
-377 378 0
-377 873 0
-377 874 0
-377 -875 0
378 -865 -872 0
-378 865 0
-378 872 0
-333 379 380 0
56 379 380 0
-379 -380 0
-56 333 -379 0
380 -869 919 0
380 -869 895 0
380 -869 904 0
-380 869 0
-380 -895 -904 -919 0
381 -382 -385 -386 -387 0
-381 387 0
-381 382 0
-381 386 0
-381 385 0
382 -383 -384 895 0
382 -383 -384 -904 0
-382 384 0
-382 383 0
-382 -895 904 0
383 665 882 0
383 -916 -930 0
383 882 -930 0
383 665 -916 0
-383 -882 916 0
-383 -665 930 0
384 -771 789 0
-384 771 0
-384 -789 0
385 -665 882 0
385 -617 930 0
385 -617 -665 0
385 882 930 0
-385 665 -930 0
-385 617 -882 0
386 -839 -944 0
386 842 942 0
386 942 -944 0
386 -839 842 0
-386 -842 944 0
-386 839 -942 0
-333 387 0
387 -877 -916 0
387 892 -916 0
333 -387 916 0
333 -387 877 -892 0
388 389 391 394 395 0
388 389 391 -394 -395 0
-388 -391 0
-388 394 -395 0
-388 -389 0
-388 -394 395 0
389 -390 -857 0
389 -857 859 -861 0
-389 857 0
-389 390 -859 0
-389 390 861 0
390 -856 858 -859 860 0
-390 859 0
-390 -860 0
-390 856 0
-390 -858 0
391 -392 -869 0
391 393 -869 0
391 -869 888 0
-391 869 0
-391 392 -393 -888 0
392 870 889 0
-392 -870 0
-392 -889 0
393 -868 871 0
393 867 -870 0
393 -868 -870 0
393 867 871 0
-393 870 -871 0
-393 -867 868 0
-324 394 766 0
-394 -766 0
324 -394 0
395 854 900 0
-395 -854 0
-395 -900 0
-330 333 396 -397 -403 0
-396 403 0
330 -396 0
-396 397 0
-333 -396 0
397 -398 -401 402 0
397 -398 -401 -854 0
-397 401 0
-397 398 0
-397 -402 854 0
398 399 -400 0
398 -400 933 956 0
-398 400 0
-398 -399 -956 0
-398 -399 -933 0
399 837 850 0
-399 -837 0
-399 -850 0
400 -877 881 0
400 -880 882 0
400 -877 -880 0
400 881 882 0
-400 877 -882 0
-400 880 -881 0
401 -769 -770 775 0
-401 769 0
-401 770 0
-401 -775 0
402 -869 919 0
-402 869 0
-402 -919 0
403 404 878 0
403 404 -877 0
403 404 879 0
-403 -404 0
-403 877 -878 -879 0
404 -837 933 956 0
404 -850 933 956 0
-404 -956 0
-404 -933 0
-404 837 850 0
-56 405 -406 0
333 405 -406 -942 0
-405 406 0
56 -333 -405 0
56 -405 942 0
406 -407 -936 0
406 -407 854 919 0
-406 407 0
-406 -919 936 0
-406 -854 936 0
407 408 -865 -866 0
407 408 865 -874 0
-407 -408 0
-407 -865 866 0
-407 865 874 0
408 811 836 840 0
-408 -811 0
-408 -840 0
-408 -836 0
409 576 578 774 0
-409 -576 0
-409 -774 0
-409 -578 0
410 854 955 0
269 410 854 876 0
-410 -854 0
-410 -876 -955 0
-269 -410 -955 0
348 411 412 873 0
268 348 411 412 0
-411 -412 0
-348 -411 0
-268 -411 -873 0
-349 412 -917 0
337 -349 412 0
349 -412 0
-337 -412 917 0
-203 413 -847 -854 0
-203 413 -847 953 0
203 -413 0
-413 847 0
-413 854 -953 0
414 -415 -417 0
-268 -304 414 -417 0
-414 417 0
268 -414 415 0
304 -414 415 0
-267 415 416 0
-267 293 415 -942 0
267 -415 0
-415 -416 942 0
-293 -415 -416 0
281 416 951 0
-416 -951 0
-281 -416 0
417 -418 425 -426 432 0
417 418 -425 -426 432 0
-417 -432 0
-417 418 425 0
-417 426 0
-417 -418 -425 0
324 418 767 0
-324 418 419 423 0
-324 -418 -419 0
324 -418 -767 0
-324 -418 -423 0
419 -421 -848 0
-207 419 -420 -848 0
-419 848 0
207 -419 421 0
-419 420 421 0
420 758 759 0
-420 -758 0
-420 -759 0
421 -422 587 0
-207 421 -422 758 0
-421 422 0
207 -421 -587 0
-421 -587 -758 0
-207 422 589 0
422 585 589 0
-422 -589 0
207 -422 -585 0
-208 423 -636 0
184 423 424 -636 0
-423 636 0
-184 208 -423 0
208 -423 -424 0
-27 -207 424 0
-207 424 758 0
207 -424 0
27 -424 -758 0
425 -854 -901 0
425 854 -954 0
-425 854 954 0
-425 -854 901 0
367 426 427 -430 -431 0
-367 426 -427 -430 -431 0
367 426 427 430 431 0
-367 426 -427 430 431 0
367 -426 -427 0
-367 -426 427 0
-426 430 -431 0
-426 -430 431 0
-324 427 -428 0
324 -427 0
-427 428 0
-207 428 -429 0
-5 207 428 0
-207 -428 429 0
5 207 -428 0
-118 429 -758 0
208 429 604 758 0
118 -429 -758 0
-429 -604 758 0
-208 -429 758 0
324 430 765 0
205 -324 430 634 0
324 -430 -765 0
-205 -324 -430 0
-324 -430 -634 0
431 854 899 0
-431 -854 0
-431 -899 0
432 434 -854 0
270 432 -854 0
432 433 -854 0
-432 854 0
-270 -432 -433 -434 0
-347 349 433 0
347 -433 0
-349 -433 0
346 434 -919 0
346 434 869 0
-346 -434 0
-434 -869 919 0
435 -454 -459 0
-229 435 -436 -459 0
-435 459 0
229 -435 454 0
-435 436 454 0
436 -437 -444 449 -451 0
-436 451 0
-436 437 0
-436 444 0
-436 -449 0
437 -438 -443 0
437 -438 442 0
-437 438 0
-437 -442 443 0
438 439 -797 0
438 439 -440 441 0
-438 -439 0
-438 -441 797 0
-438 440 797 0
439 770 771 0
-439 -770 0
-439 -771 0
-56 -241 440 0
241 440 799 0
241 -440 -799 0
56 -241 -440 0
56 441 -798 0
56 -252 441 0
-56 -441 0
252 -441 798 0
241 442 796 0
-247 442 796 0
-442 -796 0
-241 247 -442 0
-237 251 443 795 0
241 251 443 795 0
-443 -795 0
-251 -443 0
237 -241 -443 0
444 445 446 0
444 445 -578 0
-444 -445 0
-444 -446 578 0
445 768 -769 0
-445 -768 0
-445 769 0
446 447 766 -767 0
446 447 -448 -766 0
-446 -447 0
-446 448 -766 0
-446 766 767 0
205 447 634 0
-447 -634 0
-205 -447 0
448 685 -764 765 0
-448 -685 0
-448 764 0
-448 -765 0
449 450 800 0
-449 -800 0
-449 -450 0
-428 450 578 0
-450 -578 0
428 -450 0
-204 451 -452 453 -576 0
-451 452 0
-451 -453 0
-451 576 0
204 -451 0
439 452 -768 -769 0
439 452 769 -770 0
-439 -452 0
-452 768 -769 0
-452 769 770 0
453 769 -778 0
-453 -769 0
-453 778 0
454 455 -458 576 0
454 -455 -456 576 0
-454 -576 0
-454 -455 456 0
-454 455 458 0
204 -210 -212 455 0
212 -455 0
210 -455 0
-204 -455 0
456 457 -804 0
215 217 456 -804 0
-456 804 0
-215 -456 -457 0
-217 -456 -457 0
261 -443 457 806 0
261 457 797 806 0
-261 -457 0
-457 -806 0
443 -457 -797 0
204 458 804 -807 0
-204 458 804 807 0
-458 -804 0
-204 -458 -807 0
204 -458 807 0
401 459 -460 0
-305 459 -460 0
-216 459 -460 0
-459 460 0
216 305 -401 -459 0
-234 460 461 -514 0
460 461 -512 -514 0
-460 514 0
-460 -461 0
234 -460 512 0
461 488 -578 0
461 -462 488 0
461 -487 488 0
-461 -488 0
-461 462 487 578 0
462 -463 -779 0
462 486 -779 0
205 462 -779 0
-462 779 0
-205 -462 463 -486 0
263 463 464 -485 0
263 463 -469 -485 0
-263 -463 0
-463 485 0
-463 -464 469 0
464 -579 -743 0
464 -465 579 0
-464 465 579 0
-464 -579 743 0
465 -725 -756 0
465 -466 756 0
-465 725 -756 0
-465 466 756 0
466 -702 -757 0
466 -467 757 0
-466 702 -757 0
-466 467 757 0
467 -677 -758 0
467 -468 758 0
-467 677 -758 0
-467 468 758 0
468 -651 -759 0
468 -612 759 0
-468 612 759 0
-468 651 -759 0
-191 469 -579 0
469 -470 579 0
-469 470 579 0
191 -469 -579 0
-39 470 -756 0
470 -477 756 0
470 -471 756 0
39 -470 -756 0
-470 471 477 756 0
471 476 585 -757 0
471 -472 476 -757 0
-471 757 0
-471 -476 0
-471 472 -585 0
-52 472 473 0
-160 472 473 716 0
-472 -473 0
52 -472 -716 0
52 160 -472 0
473 -474 -714 0
-473 714 0
-473 474 0
-41 474 475 0
474 475 716 0
-474 -475 0
41 -474 -716 0
48 52 475 0
-48 -475 0
-52 -475 0
147 474 476 0
147 476 585 0
-147 -476 0
-474 -476 -585 0
477 -478 757 0
477 482 -484 757 0
-477 -757 0
-477 478 484 0
-477 478 -482 0
478 479 616 758 0
478 479 758 -759 0
-478 -479 0
-478 -758 0
-478 -616 759 0
479 480 -589 -759 0
101 479 480 -759 0
-479 759 0
-479 -480 0
-101 -479 589 0
-50 -99 480 -481 0
-99 -101 480 -481 0
-480 481 0
99 -480 0
50 101 -480 0
50 481 668 0
481 -589 667 668 0
-481 -668 0
-50 -481 589 0
-50 -481 -667 0
51 482 -587 0
482 483 -587 -691 0
-482 587 0
-51 -482 691 0
-51 -482 -483 0
42 483 -693 0
-483 693 0
-42 -483 0
-114 484 -758 0
483 484 -587 -758 0
-484 758 0
114 -483 -484 0
114 -484 587 0
-215 485 781 0
485 773 781 0
-485 -781 0
215 -485 -773 0
-210 486 -780 0
-486 780 0
210 -486 0
-486 487 779 -783 0
-205 487 779 783 0
205 487 779 -783 0
-487 -779 0
205 -487 783 0
-205 486 -487 -783 0
-218 488 489 496 -502 0
-488 502 0
-488 -496 0
218 -488 0
-488 -489 0
469 489 490 0
-469 -489 0
-489 -490 0
199 490 -579 0
490 -491 579 0
-199 -490 -579 0
-490 491 579 0
53 491 -756 0
491 -492 756 0
-53 -491 -756 0
-491 492 756 0
164 492 -757 0
492 493 495 757 0
-164 -492 -757 0
-492 -495 757 0
-492 -493 757 0
493 -494 758 -759 0
493 615 758 759 0
-493 -758 0
-493 -615 759 0
-493 494 -759 0
-49 494 650 0
-494 -650 0
49 -494 0
-168 495 -758 0
-495 758 0
168 -495 0
464 496 497 0
-464 -496 0
-496 -497 0
196 497 -579 0
196 497 -498 0
-196 -497 0
-497 498 579 0
-57 498 -756 0
498 -499 756 0
-498 499 756 0
57 -498 -756 0
-154 499 -757 0
499 -500 757 0
-499 500 757 0
154 -499 -757 0
-128 500 -758 0
500 -501 758 0
-500 501 758 0
128 -500 -758 0
-56 501 -759 0
501 617 759 0
56 -501 -759 0
-501 -617 759 0
-56 502 -508 0
-464 502 -508 0
502 -503 -508 0
-502 508 0
56 464 -502 503 0
503 504 579 0
-254 503 504 744 0
-503 -504 0
254 -503 -579 0
-503 -579 -744 0
504 -505 579 756 0
58 504 579 -756 0
-504 -579 0
-58 -504 -756 0
-504 505 756 0
505 506 757 0
160 505 506 0
-505 -506 0
-160 -505 -757 0
506 -507 627 759 0
-99 506 -507 -759 0
-506 507 0
99 -506 -759 0
-506 -627 759 0
507 757 758 0
-507 -757 0
-507 -758 0
205 446 508 -509 -511 0
-205 -508 0
-508 511 0
-508 509 0
-446 -508 0
509 510 -768 0
509 510 769 0
-509 -510 0
-509 768 -769 0
428 510 761 0
-510 -761 0
-428 -510 0
439 -452 453 511 -578 0
452 -511 0
-453 -511 0
-511 578 0
-439 -511 0
-217 512 -769 0
401 512 -769 0
217 401 512 513 0
-217 -512 769 0
217 -401 -512 0
-512 -513 769 0
513 578 774 0
-513 -578 0
-513 -774 0
-227 489 514 -518 0
489 514 -515 -518 0
-514 518 0
-489 -514 0
227 -514 515 0
-207 515 516 -769 0
-10 515 516 -769 0
-515 769 0
-515 -516 0
10 207 -515 0
-207 516 -517 758 0
-11 -207 516 -758 0
207 -516 0
11 -516 -758 0
-516 517 758 0
-13 517 759 0
12 517 -759 0
-12 -517 -759 0
13 -517 759 0
518 -519 -524 -527 -569 0
-518 569 0
-518 519 0
-518 527 0
-518 524 0
-291 519 -520 522 0
288 519 -520 522 0
-519 520 0
-519 -522 0
-288 291 -519 0
-260 520 -521 0
291 323 520 0
323 520 -521 0
-260 291 520 0
-291 -520 521 0
260 -323 -520 0
289 521 819 0
521 811 819 0
-521 -819 0
-289 -521 -811 0
-235 522 523 0
235 -522 0
-522 -523 0
-442 523 576 0
-523 -576 0
442 -523 0
439 524 525 -526 0
439 524 525 -820 0
-524 -525 0
-439 -524 0
-524 526 820 0
235 -521 525 0
-235 -525 0
521 -525 0
-56 526 -811 0
526 811 822 0
-526 811 -822 0
56 -526 -811 0
-443 527 -528 -566 0
523 527 -528 -566 0
-527 566 0
-527 528 0
443 -523 -527 0
262 -438 528 -529 0
325 -438 528 -529 0
-528 529 0
438 -528 0
-262 -325 -528 0
497 529 -530 -820 0
497 529 -530 565 0
-529 530 0
-497 -529 0
-529 -565 820 0
-464 530 -531 -538 -562 0
-530 562 0
464 -530 0
-530 538 0
-530 531 0
440 531 532 -537 0
-427 440 531 532 0
-531 -532 0
-440 -531 0
427 -531 537 0
428 532 -533 579 0
428 532 -579 752 0
-428 -532 0
-532 533 579 0
-532 -579 -752 0
533 735 -756 0
533 -534 756 0
-533 -735 -756 0
-533 534 756 0
534 719 -757 0
534 -535 757 0
-534 -719 -757 0
-534 535 757 0
535 696 -758 0
535 -536 758 0
-535 -696 -758 0
-535 536 758 0
536 639 759 0
536 671 -759 0
-536 -671 -759 0
-536 -639 759 0
449 537 -814 0
-537 814 0
-449 -537 0
-444 538 -539 561 0
-430 -444 538 -539 0
-538 539 0
444 -538 0
430 -538 -561 0
446 510 539 -540 -544 0
-446 -539 0
-539 544 0
-539 540 0
-510 -539 0
203 -227 540 542 0
203 540 -541 542 0
-203 -540 0
-540 -542 0
227 -540 541 0
401 541 -769 0
541 -769 773 0
401 541 -773 -774 0
-541 769 773 0
-401 -541 -773 0
-541 769 774 0
542 543 773 0
542 543 774 0
-542 -543 0
-542 -773 -774 0
205 543 772 0
14 205 543 611 0
-205 -543 0
-14 -543 -772 0
-543 -611 -772 0
30 544 -545 -555 0
-205 544 -545 -555 0
-544 555 0
-544 545 0
-30 205 -544 0
545 -546 -547 -548 -551 0
-545 551 0
-545 546 0
-545 548 0
-545 547 0
439 546 -768 0
439 546 769 0
-439 -546 0
-546 768 -769 0
547 -573 760 767 0
547 -573 -685 760 0
-547 573 0
-547 -760 0
-547 685 -767 0
548 -549 -550 -764 -768 0
-548 550 0
-548 764 0
-548 549 0
-548 768 0
549 -769 -770 0
-549 769 0
-549 770 0
550 -771 -788 790 -794 0
-550 794 0
-550 771 0
-550 788 0
-550 -790 0
551 -552 -553 577 0
551 -552 -553 790 0
-551 553 0
-551 552 0
-551 -577 -790 0
552 575 -831 0
552 813 823 0
552 813 -831 0
552 575 823 0
-552 -575 -813 0
-552 -823 831 0
-384 553 -554 -769 0
-384 553 -554 -770 0
-553 554 0
384 -553 0
-553 769 770 0
554 -575 -790 0
554 -577 -813 0
554 -575 -577 0
554 -790 -813 0
-554 577 790 0
-554 575 813 0
-211 555 -556 -558 -560 0
-555 560 0
211 -555 0
-555 558 0
-555 556 0
556 -557 830 -834 -839 0
-556 -830 0
-556 557 0
-556 839 0
-556 834 0
557 -812 813 -817 -829 0
-557 829 0
-557 812 0
-557 817 0
-557 -813 0
558 559 -791 0
558 559 578 761 0
-558 -559 0
-558 -761 791 0
-558 -578 791 0
559 -576 814 0
559 -800 814 0
-559 -814 0
-559 576 800 0
526 560 -839 0
-56 526 560 0
-408 526 560 0
-526 -560 0
56 408 -560 839 0
-394 561 -767 0
394 -448 561 0
-394 -561 767 0
394 448 -561 0
562 -563 564 -791 0
-450 562 -563 564 0
-562 563 0
-562 -564 0
450 -562 791 0
-427 -509 563 0
-509 563 -823 -831 0
509 -563 0
427 -563 823 0
427 -563 831 0
427 564 842 0
427 564 576 800 0
-427 -564 0
-564 -800 -842 0
-564 -576 -842 0
56 258 565 0
56 565 -821 0
-56 -565 0
-258 -565 821 0
-263 566 -567 568 0
325 566 -567 568 0
-566 567 0
-566 -568 0
263 -325 -566 0
496 567 -820 0
-440 496 565 567 0
-496 -567 0
-565 -567 820 0
440 -567 820 0
497 568 797 0
-568 -797 0
-497 -568 0
-437 443 569 0
-437 490 569 578 0
437 -569 0
-443 -490 -569 0
-443 -569 -578 0
-214 570 572 0
570 571 572 0
-570 -572 0
214 -570 -571 0
260 -291 571 845 0
260 571 839 845 0
-260 -571 0
-571 -845 0
291 -571 -839 0
305 -409 572 769 0
-216 305 572 769 0
-572 -769 0
-305 -572 0
216 409 -572 0
1 2 0
-1 -2 0
960 0

